RSW08
Position Depot: Center
Horizon for Depot: Small
Position of customers: Random
Distribution of the demand: Small
Width of time windows: Wide
Distribution of the service: Large

VEHICLE 
NUMBER 	 CAPACITY 
 5 	 	 78 
 
CUSTOMER
CUST NO. 	 XCOORD.  	 YCOORD. 	 DEMAND 	 READY TIME 	 DUE DATE 	 SERVICE TIME 
 0 	 	 500 	 	 500 	 	 0 	 	 0 	 	 1898 	 	 0 
  1 	 	 544 	 	 361 	 	 7 	 	 1114 	 	 1596 	 	 173 
  2 	 	 418 	 	 309 	 	 9 	 	 316 	 	 750 	 	 110 
  3 	 	 54 	 	 106 	 	 9 	 	 372 	 	 730 	 	 127 
  4 	 	 437 	 	 570 	 	 9 	 	 1478 	 	 1780 	 	 131 
  5 	 	 285 	 	 94 	 	 8 	 	 573 	 	 1032 	 	 136 
  6 	 	 299 	 	 619 	 	 8 	 	 1540 	 	 1787 	 	 152 
  7 	 	 229 	 	 717 	 	 6 	 	 855 	 	 1117 	 	 165 
  8 	 	 994 	 	 367 	 	 9 	 	 1297 	 	 1775 	 	 110 
  9 	 	 32 	 	 83 	 	 7 	 	 287 	 	 713 	 	 111 
  10 	 	 197 	 	 905 	 	 5 	 	 769 	 	 1036 	 	 110 
  11 	 	 702 	 	 482 	 	 5 	 	 1512 	 	 1737 	 	 118 
  12 	 	 506 	 	 128 	 	 10 	 	 800 	 	 1223 	 	 161 
  13 	 	 301 	 	 11 	 	 9 	 	 273 	 	 751 	 	 181 
  14 	 	 121 	 	 611 	 	 5 	 	 1425 	 	 1898 	 	 171 
  15 	 	 941 	 	 851 	 	 9 	 	 639 	 	 856 	 	 129 
  16 	 	 964 	 	 552 	 	 10 	 	 1008 	 	 1285 	 	 102 
  17 	 	 769 	 	 949 	 	 8 	 	 308 	 	 575 	 	 142 
  18 	 	 686 	 	 392 	 	 9 	 	 1527 	 	 1764 	 	 177 
  19 	 	 797 	 	 461 	 	 7 	 	 518 	 	 823 	 	 154 
  20 	 	 974 	 	 495 	 	 5 	 	 614 	 	 943 	 	 200 
  21 	 	 4 	 	 665 	 	 10 	 	 1159 	 	 1412 	 	 138 
  22 	 	 748 	 	 836 	 	 6 	 	 913 	 	 1408 	 	 148 
  23 	 	 13 	 	 995 	 	 8 	 	 263 	 	 763 	 	 111 
  24 	 	 863 	 	 249 	 	 5 	 	 623 	 	 1092 	 	 157 
  25 	 	 566 	 	 872 	 	 7 	 	 925 	 	 1141 	 	 118 
  26 	 	 505 	 	 496 	 	 9 	 	 614 	 	 890 	 	 170 
  27 	 	 119 	 	 211 	 	 7 	 	 1006 	 	 1213 	 	 163 
  28 	 	 640 	 	 678 	 	 9 	 	 790 	 	 1063 	 	 118 
  29 	 	 323 	 	 409 	 	 8 	 	 341 	 	 775 	 	 175 
  30 	 	 978 	 	 803 	 	 7 	 	 1243 	 	 1646 	 	 198 
  31 	 	 690 	 	 632 	 	 9 	 	 65 	 	 276 	 	 127 
  32 	 	 562 	 	 228 	 	 6 	 	 1059 	 	 1436 	 	 155 
  33 	 	 570 	 	 783 	 	 5 	 	 106 	 	 320 	 	 199 
  34 	 	 239 	 	 877 	 	 10 	 	 517 	 	 839 	 	 192 
  35 	 	 950 	 	 205 	 	 9 	 	 110 	 	 591 	 	 110 
  36 	 	 522 	 	 165 	 	 5 	 	 451 	 	 779 	 	 175 
  37 	 	 908 	 	 726 	 	 10 	 	 494 	 	 872 	 	 154 
  38 	 	 380 	 	 787 	 	 6 	 	 -155 	 	 342 	 	 163 
  39 	 	 952 	 	 134 	 	 6 	 	 679 	 	 880 	 	 123 
  40 	 	 17 	 	 271 	 	 7 	 	 1587 	 	 1898 	 	 152 
  41 	 	 674 	 	 193 	 	 6 	 	 606 	 	 1106 	 	 125 
  42 	 	 425 	 	 584 	 	 8 	 	 -56 	 	 231 	 	 174 
  43 	 	 854 	 	 1 	 	 10 	 	 421 	 	 672 	 	 107 
  44 	 	 298 	 	 150 	 	 9 	 	 612 	 	 996 	 	 123 
  45 	 	 959 	 	 603 	 	 10 	 	 234 	 	 517 	 	 165 
  46 	 	 983 	 	 839 	 	 6 	 	 900 	 	 1145 	 	 157 
  47 	 	 187 	 	 808 	 	 7 	 	 357 	 	 736 	 	 156 
  48 	 	 248 	 	 586 	 	 10 	 	 -25 	 	 292 	 	 183 
  49 	 	 222 	 	 875 	 	 7 	 	 280 	 	 700 	 	 194 
  50 	 	 730 	 	 286 	 	 10 	 	 1578 	 	 1898 	 	 146 
 